unsat
(:binary-propagations  16
 :conflicts            1
 :final-checks         1
 :max-generation       1
 :max-memory           25.38
 :memory               21.48
 :mk-bool-var          1278
 :mk-clause            386
 :mk-clause-binary     1969
 :num-allocs           29237214
 :num-checks           1
 :propagations         16
 :quant-instantiations 334
 :restarts             1
 :rlimit-count         319909
 :time                 0.06)
